4 4 100 1 2
0 700
 1 40.00 50.00 0.00 0.00 0.00 0 0 0 3390
 2 52.00 75.00 90.00 10.00 20.00 1 1 1 311 471
 3 45.00 70.00 90.00 30.00 10.00 1 1 1 213 373
 4 62.00 69.00 90.00 10.00 10.00 1 1 1 1167 1327
 5 60.00 66.00 90.00 10.00 10.00 1 1 1 1261 1421
 6 42.00 65.00 90.00 10.00 20.00 1 1 1 25 185
 7 16.00 42.00 90.00 20.00 30.00 1 1 1 497 657
 8 58.00 70.00 90.00 20.00 20.00 1 1 1 1073 1233
 9 34.00 60.00 90.00 20.00 10.00 1 1 1 2887 3047
 10 28.00 70.00 90.00 10.00 30.00 1 1 1 2601 2761
 11 35.00 66.00 90.00 10.00 10.00 1 1 1 2791 2951
 12 35.00 69.00 90.00 10.00 20.00 1 1 1 2698 2858
 13 25.00 85.00 90.00 20.00 10.00 1 1 1 2119 2279
 14 22.00 75.00 90.00 30.00 20.00 1 1 1 2405 2565
 15 22.00 85.00 90.00 10.00 10.00 1 1 1 2026 2186
 16 20.00 80.00 90.00 40.00 10.00 1 1 1 2216 2376
 17 20.00 85.00 90.00 40.00 20.00 1 1 1 1934 2094
 18 18.00 75.00 90.00 20.00 20.00 1 1 1 2311 2471
 19 15.00 75.00 90.00 20.00 10.00 1 1 1 1742 1902
 20 15.00 80.00 90.00 10.00 10.00 1 1 1 1837 1997
 21 30.00 50.00 90.00 10.00 10.00 1 1 1 10 170
 22 30.00 56.00 90.00 20.00 20.00 1 1 1 2983 3143
 23 28.00 52.00 90.00 20.00 30.00 1 1 1 22 182
 24 14.00 66.00 90.00 10.00 10.00 1 1 1 1643 1803
 25 25.00 50.00 90.00 10.00 40.00 1 1 1 116 276
 26 22.00 66.00 90.00 40.00 10.00 1 1 1 2504 2664
 27 8.00 62.00 90.00 10.00 10.00 1 1 1 1545 1705
 28 23.00 52.00 90.00 10.00 10.00 1 1 1 209 369
 29 4.00 55.00 90.00 20.00 20.00 1 1 1 1447 1607
 30 20.00 50.00 90.00 10.00 10.00 1 1 1 398 558
 31 20.00 55.00 90.00 10.00 30.00 1 1 1 303 463
 32 10.00 35.00 90.00 20.00 10.00 1 1 1 781 941
 33 10.00 40.00 90.00 30.00 30.00 1 1 1 593 753
 34 8.00 40.00 90.00 40.00 10.00 1 1 1 685 845
 35 8.00 45.00 90.00 20.00 10.00 1 1 1 1346 1506
 36 5.00 35.00 90.00 10.00 10.00 1 1 1 876 1036
 37 5.00 45.00 90.00 10.00 10.00 1 1 1 1253 1413
 38 2.00 40.00 90.00 20.00 10.00 1 1 1 971 1131
 39 0.00 40.00 90.00 30.00 20.00 1 1 1 1063 1223
 40 0.00 45.00 90.00 20.00 10.00 1 1 1 1158 1318
 41 36.00 18.00 90.00 10.00 40.00 1 1 1 1819 1979
 42 35.00 32.00 90.00 10.00 10.00 1 1 1 2758 2918
 43 33.00 32.00 90.00 20.00 40.00 1 1 1 2666 2826
 44 33.00 35.00 90.00 10.00 10.00 1 1 1 2573 2733
 45 32.00 20.00 90.00 10.00 30.00 1 1 1 1913 2073
 46 30.00 30.00 90.00 10.00 30.00 1 1 1 2105 2265
 47 34.00 25.00 90.00 30.00 30.00 1 1 1 2009 2169
 48 30.00 35.00 90.00 10.00 10.00 1 1 1 2480 2640
 49 36.00 40.00 90.00 10.00 20.00 1 1 1 2856 3016
 50 48.00 20.00 90.00 10.00 10.00 1 1 1 967 1127
 51 26.00 32.00 90.00 10.00 10.00 1 1 1 2292 2452
 52 25.00 30.00 90.00 10.00 10.00 1 1 1 2200 2360
 53 25.00 35.00 90.00 10.00 10.00 1 1 1 2385 2545
 54 44.00 5.00 90.00 20.00 40.00 1 1 1 1256 1416
 55 42.00 10.00 90.00 40.00 10.00 1 1 1 1160 1320
 56 42.00 15.00 90.00 10.00 10.00 1 1 1 1065 1225
 57 40.00 5.00 90.00 30.00 10.00 1 1 1 1350 1510
 58 38.00 15.00 90.00 40.00 10.00 1 1 1 1725 1885
 59 38.00 5.00 90.00 30.00 30.00 1 1 1 1442 1602
 60 38.00 10.00 90.00 10.00 10.00 1 1 1 1630 1790
 61 35.00 5.00 90.00 20.00 40.00 1 1 1 1535 1695
 62 50.00 30.00 90.00 10.00 10.00 1 1 1 401 561
 63 50.00 35.00 90.00 20.00 30.00 1 1 1 120 280
 64 50.00 40.00 90.00 50.00 10.00 1 1 1 25 185
 65 48.00 30.00 90.00 10.00 10.00 1 1 1 493 653
 66 44.00 25.00 90.00 10.00 40.00 1 1 1 871 1031
 67 47.00 35.00 90.00 10.00 20.00 1 1 1 588 748
 68 47.00 40.00 90.00 10.00 10.00 1 1 1 12 172
 69 42.00 30.00 90.00 10.00 10.00 1 1 1 776 936
 70 45.00 35.00 90.00 10.00 20.00 1 1 1 680 840
 71 95.00 30.00 90.00 30.00 20.00 1 1 1 2321 2481
 72 95.00 35.00 90.00 20.00 10.00 1 1 1 2226 2386
 73 53.00 30.00 90.00 10.00 10.00 1 1 1 308 468
 74 92.00 30.00 90.00 10.00 20.00 1 1 1 2414 2574
 75 53.00 35.00 90.00 50.00 20.00 1 1 1 213 373
 76 45.00 65.00 90.00 20.00 10.00 1 1 1 118 278
 77 90.00 35.00 90.00 10.00 10.00 1 1 1 2131 2291
 78 72.00 45.00 90.00 10.00 30.00 1 1 1 2900 3060
 79 78.00 40.00 90.00 20.00 20.00 1 1 1 2802 2962
 80 87.00 30.00 90.00 10.00 20.00 1 1 1 2608 2768
 81 85.00 25.00 90.00 10.00 40.00 1 1 1 2513 2673
 82 85.00 35.00 90.00 30.00 20.00 1 1 1 2703 2863
 83 75.00 55.00 90.00 20.00 10.00 1 1 1 1925 2085
 84 72.00 55.00 90.00 10.00 30.00 1 1 1 1832 1992
 85 70.00 58.00 90.00 20.00 10.00 1 1 1 1641 1801
 86 86.00 46.00 90.00 30.00 20.00 1 1 1 2029 2189
 87 66.00 55.00 90.00 10.00 20.00 1 1 1 1736 1896
 88 64.00 46.00 90.00 20.00 10.00 1 1 1 3097 3257
 89 65.00 60.00 90.00 30.00 10.00 1 1 1 1546 1706
 90 56.00 64.00 90.00 10.00 20.00 1 1 1 1355 1515
 91 60.00 55.00 90.00 10.00 20.00 1 1 1 3119 3279
 92 60.00 60.00 90.00 10.00 10.00 1 1 1 1451 1611
 93 67.00 85.00 90.00 20.00 50.00 1 1 1 694 854
 94 42.00 58.00 90.00 40.00 20.00 1 1 1 8 168
 95 65.00 82.00 90.00 10.00 10.00 1 1 1 788 948
 96 62.00 80.00 90.00 30.00 30.00 1 1 1 881 1041
 97 62.00 40.00 90.00 10.00 20.00 1 1 1 3001 3161
 98 60.00 85.00 90.00 30.00 20.00 1 1 1 597 757
 99 58.00 75.00 90.00 20.00 10.00 1 1 1 978 1138
 100 55.00 80.00 90.00 10.00 10.00 1 1 1 407 567
 101 55.00 85.00 90.00 20.00 50.00 1 1 1 502 662
